c --- [ banner ] -------------------------------------------------------------
c 
c CaDiCaL Radically Simplified CDCL SAT Solver
c Copyright (c) 2016-2021 A. Biere, M. Fleury, N. Froleyks
c 
c Version 1.5.2 a5f15211db36c3956764e18194dd5bd63bf3b5e6
c g++ (GCC) 9.3.0 -Wall -Wextra -O3 -DNDEBUG
c Fri Oct 21 01:27:37 EDT 2022 Linux gra-login3 3.10.0-1160.66.1.el7.x86_64 x86_64
c 
c --- [ limit ] --------------------------------------------------------------
c 
c setting conflict limit to 200000 conflicts (due to '200000')
c 
c --- [ parsing input ] ------------------------------------------------------
c 
c reading DIMACS file from '33.cubes1912.adj'
c opening file to read '33.cubes1912.adj'
c found 'p cnf 6160 1595471' header
c parsed 1595471 clauses in 19.93 seconds process time
c closing file '33.cubes1912.adj'
c after reading 1457566750 bytes 1390.0 MB
c 
c --- [ options ] ------------------------------------------------------------
c 
c all options are set to their default value
c 
c --- [ solving ] ------------------------------------------------------------
c 
c time measured in process time since initialization
c 
c  seconds    reductions  redundant   irredundant
c          MB     restarts       trail       variables
c            level   conflicts       glue         remaining
c 
c * 19.94 1383  0 0   0    0    0  0% 0 1595422 2394 39%
c { 21.76 1448  0 0   0    0    0  0% 0 1595422 2394 39%
c i 23.34 1493 1210 0   0   22   19 42% 7 1595422 2393 39%
c i 26.62 1527 523 0  14  116  103 32% 29 1595422 2392 39%
c i 27.07 1530 438 0  21  143  127 31% 30 1595422 2391 39%
c i 27.81 1536 397 0  28  169  149 31% 42 1595422 2390 39%
c i 28.18 1538 386 0  31  178  157 31% 44 1595422 2380 39%
c i 29.13 1538 316 0  43  237  209 30% 44 1595422 2375 39%
c - 33.29 1517 258 1  43  302  255 30% 40 446064 2371 38%
c i 33.71 1467 248 1  43  320  270 30% 39 446064 2370 38%
c i 34.40 1468 215 1  49  404  348 29% 40 446064 2369 38%
c i 34.83 1468 197 1  53  462  396 30% 40 446064 2368 38%
c i 34.88 1468 196 1  53  465  398 30% 40 446064 2367 38%
c i 34.89 1468 196 1  53  467  399 30% 40 446064 2366 38%
c i 34.91 1468 196 1  53  469  399 30% 40 446064 2364 38%
c i 35.68 1468 183 1  68  546  456 29% 44 446064 2363 38%
c i 38.01 1470 171 1  86  662  562 29% 44 446064 2362 38%
c i 38.05 1470 170 1  86  669  568 29% 44 446064 2361 38%
c i 38.51 1470 164 1  93  723  619 29% 45 446064 2360 38%
c i 38.55 1470 164 1  94  724  619 29% 45 446064 2359 38%
c 
c  seconds     reductions  redundant   irredundant
c          MB      restarts       trail       variables
c             level   conflicts       glue         remaining
c 
c i 38.59 1470 164 1  94  728  621 29% 45 446064 2358 38%
c i 39.80 1471 164 1 106  780  666 29% 47 446064 2357 38%
c i 41.19 1472 161 1 127  875  749 29% 50 446064 2356 38%
c i 41.48 1472 159 1 130  885  758 29% 49 446064 2355 38%
c i 41.66 1472 157 1 130  908  777 29% 49 446064 2354 38%
c i 42.05 1473 155 1 130  922  790 29% 49 446064 2353 38%
c i 42.17 1473 155 1 130  927  794 29% 48 446064 2352 38%
c i 42.18 1473 155 1 130  929  795 29% 48 446064 2351 38%
c i 42.60 1473 151 1 130  979  838 29% 48 446064 2350 38%
c i 42.60 1473 151 1 130  980  838 29% 48 446064 2349 38%
c } 42.81 1473 150 1 130 1001  858 29% 49 446064 2349 38%
c [ 42.81 1473  0 1 130 1001  858  0% 0 446064 2349 38%
c O 42.81 1473  2 1 130 1002  859 12% 1 446064 2349 38%
c i 42.82 1473  1 1 130 1007  863 12% 1 446064 2331 38%
c i 42.82 1473  1 1 130 1008  863 12% 1 446064 2279 37%
c i 43.14 1473 27 1 130 1064  905 32% 20 446064 2278 37%
c i 43.15 1473 26 1 130 1065  905 32% 20 446064 2277 37%
c i 43.19 1473 26 1 130 1094  924 33% 20 446064 2276 37%
c i 43.36 1473 29 1 130 1215 1005 32% 24 446064 2275 37%
c i 43.41 1473 30 1 130 1267 1038 32% 24 446064 2274 37%
c 
c  seconds    reductions  redundant   irredundant
c          MB     restarts       trail       variables
c            level   conflicts       glue         remaining
c 
c i 43.42 1473 29 1 130 1273 1043 32% 24 446064 2273 37%
c - 44.43 1582 29 2 130 1292  926 32% 24 444950 2273 37%
c i 44.58 1582 29 2 130 1328  952 32% 24 444950 2272 37%
c i 44.60 1582 29 2 130 1343  966 32% 24 444950 2271 37%
c i 44.84 1582 29 2 130 1632 1152 32% 24 444950 2270 37%
c i 45.08 1582 27 2 131 2050 1406 32% 23 444950 2269 37%
c - 46.16 1580 27 3 131 2780 1384 32% 24 444938 2269 37%
c ] 46.76 1580 27 3 131 3002 1484 51% 23 444938 2269 37%
c { 46.76 1580 150 3 131 3002 1484 79% 49 444938 2269 37%
c F 46.80 1580 150 3 132 3003 1485 79% 49 444938 2269 37%
c i 49.08 1580 135 3 172 3452 1876 69% 50 444938 2268 37%
c i 49.30 1580 132 3 172 3538 1948 68% 50 444938 2267 37%
c i 49.43 1580 126 3 172 3660 2059 66% 49 444938 2266 37%
c i 49.45 1580 126 3 172 3661 2059 66% 48 444938 2265 37%
c - 52.43 1579 103 4 216 4760 2166 59% 47 444926 2265 37%
c p 56.09 1579 101 4 218 5002 5533 58% 47 444914 2230 36%
c d 56.74 1579 101 4 218 5002 5530 58% 47 444828 2227 36%
c # 58.63 1579 89 4 218 6004 6332 56% 44 444828 2227 36%
c } 60.04 1579 78 4 220 7002 7145 54% 40 444828 2227 36%
c [ 60.04 1579 27 4 220 7002 7145 51% 23 444828 2227 36%
c 
c  seconds    reductions  redundant   irredundant
c          MB     restarts       trail       variables
c            level   conflicts       glue         remaining
c 
c - 60.52 1575 26 5 221 7238 3211 49% 23 444828 2227 36%
c I 61.89 1575 26 5 222 10008 5253 48% 22 444828 2227 36%
c - 62.44 1575 26 6 223 10205 3750 48% 22 444828 2227 36%
c - 64.47 1575 30 7 225 13666 4131 48% 26 444828 2227 36%
c ] 65.21 1575 31 7 225 15003 5077 48% 27 444828 2227 36%
c { 65.21 1575 78 7 225 15003 5077 54% 40 444828 2227 36%
c p 66.37 1575 78 7 225 15003 8359 54% 40 444828 2227 36%
c B 66.67 1575 78 7 225 15009 8364 54% 40 444828 2227 36%
c - 69.35 1575 63 8 238 17623 5114 52% 35 444828 2227 36%
c s 70.13 1575 59 8 238 18761 5919 51% 34 443042 2227 36%
c v 75.53 1575 59 8 238 18761 5919 51% 34 443036 2227 36%
c t 75.65 1575 59 8 238 18761 5894 51% 34 443030 2227 36%
c e 77.09 1579 59 8 238 18761 5484 51% 34 440799 1033 17%
c s 77.22 1579 59 8 238 18761 5484 51% 34 439656 1033 17%
c W 81.91 1579 54 8 271 21010 7290 67% 33 439656 1033 17%
c - 83.84 1580 54 9 333 22073 6091 67% 32 439656 1033 17%
c - 90.31 1579 48 10 455 27004 6408 66% 31 439656 1033 17%
c F 91.02 1579 46 10 455 28011 6970 66% 30 439656 1033 17%
c p 98.61 1579 47 10 638 30007 10763 66% 30 439656 1033 17%
c } 100.59 1579 47 10 682 31007 11528 66% 30 439656 1033 17%
c 
c  seconds     reductions     redundant    irredundant
c           MB      restarts         trail        variables
c             level     conflicts         glue         remaining
c 
c [ 100.59 1579 31 10 682 31007 11528 105% 27 439656 1033 17%
c - 101.37 1579 29 11 682 32429 7151 99% 25 439656 1033 17%
c B 103.25 1579 27 11 685 36015 9348 90% 23 439656 1033 17%
c - 105.44 1388 42 12 686 38346 7998 86% 34 439656 1033 17%
c - 112.04 1582 66 13 689 44756 9189 80% 53 439656 1033 17%
c W 113.50 1582 67 13 689 45016 9401 79% 53 439656 1033 17%
c 3 116.15 1582 69 13 690 50011 13626 77% 56 439656 1033 17%
c p 117.04 1582 69 13 690 50011 15660 77% 56 439656 1033 17%
c - 118.30 1388 68 14 690 51658 10112 76% 55 439656 1033 17%
c O 120.24 1388 65 14 691 55017 12677 75% 53 439656 1033 17%
c - 122.06 1388 60 15 694 59053 10021 74% 49 439656 1033 17%
c ] 123.43 1388 56 15 697 63009 12603 73% 46 439656 1033 17%
c { 123.43 1388 47 15 697 63009 12603 66% 30 439656 1033 17%
c B 124.39 1388 43 15 697 66021 14629 66% 28 439656 1033 17%
c - 124.88 1388 43 16 697 66941 10140 66% 28 439656 1033 17%
c p 142.28 1388 40 16 965 75014 19220 66% 27 439656 1033 17%
c - 143.10 1388 40 17 965 75320 11791 66% 26 439656 1033 17%
c W 145.24 1388 38 17 965 78022 13559 65% 26 439656 1033 17%
c - 179.53 1387 39 18 1568 84193 12765 65% 26 439656 1033 17%
c # 188.33 1387 37 18 1726 91024 17301 66% 25 439656 1033 17%
c 
c  seconds     reductions      redundant   irredundant
c           MB      restarts          trail       variables
c             level      conflicts        glue         remaining
c 
c - 197.47 1387 37 19 1864 93558 13295 66% 25 439656 1033 17%
c - 208.16 1387 34 20 2011 103417 14090 66% 24 439656 1033 17%
c p 213.02 1387 34 20 2019 105014 18460 66% 24 439656 1033 17%
c B 213.47 1387 34 20 2019 105026 18472 66% 24 439656 1033 17%
c - 227.13 1387 33 21 2231 113770 15494 66% 23 439656 1033 17%
c W 232.80 1387 31 21 2231 120027 19460 66% 22 439656 1033 17%
c - 234.55 1387 30 22 2237 124614 15176 66% 21 439656 1033 17%
c } 235.18 1387 29 22 2237 127010 16755 66% 21 439656 1033 17%
c [ 235.18 1387 56 22 2237 127010 16755 73% 46 439656 1033 17%
c - 238.27 1387 49 23 2241 135952 15241 71% 40 439656 1033 17%
c B 238.35 1387 49 23 2241 136031 15300 71% 40 439656 1033 17%
c p 243.53 1387 48 23 2244 140014 21357 71% 39 439656 1033 17%
c - 250.23 1387 46 24 2245 147782 16116 70% 38 439656 1033 17%
c W 254.42 1387 47 24 2246 153033 19841 69% 39 439656 1033 17%
c - 259.24 1387 45 25 2246 160105 17080 68% 38 439656 1033 17%
c I 264.73 1387 43 25 2249 171035 23993 68% 36 439656 1033 17%
c - 268.97 1387 44 26 2250 172921 17752 68% 37 439656 1033 17%
c s 269.28 1387 44 26 2250 172921 17748 68% 37 436046 1033 17%
c v 286.72 1387 44 26 2250 172921 17748 68% 37 436042 1033 17%
c w 287.41 1387 44 26 2250 172921 17748 68% 37 436042 1033 17%
c 
c  seconds     reductions       redundant   irredundant
c           MB      restarts           trail       variables
c             level      conflicts         glue         remaining
c 
c t 287.42 1387 44 26 2250 172921 17746 68% 37 436042 1033 17%
c s 289.45 1388 44 26 2250 172921 17746 68% 37 430101 1033 17%
c p 304.27 1388 44 26 2253 180014 26014 67% 37 430101 1033 17%
c - 313.48 1388 44 27 2258 186232 18351 67% 37 430101 1033 17%
c B 318.53 1388 43 27 2260 190038 20615 67% 36 430101 1033 17%
c - 332.78 1388 44 28 2261 199955 19086 67% 37 430101 1033 17%
c ] 332.87 1388 44 28 2261 200004 19123 67% 37 430101 1033 17%
c ? 332.87 1388 44 28 2261 200004 19123 67% 37 430101 1033 17%
c 
c --- [ writing output ] -----------------------------------------------------
c 
c writing simplified CNF to DIMACS file 'simp/33.cubes1912.adj.simp1'
c * 332.87 1388 44 28 2261 200004 19123 67% 37 430101 1033 17%
c opening file to write 'simp/33.cubes1912.adj.simp1'
c writing 'p cnf 6160 430101' header
c closing file 'simp/33.cubes1912.adj.simp1'
c after writing 222637057 bytes 212.3 MB
c wrote 430101 clauses in 1.67 seconds process time
c 
c --- [ writing extension ] --------------------------------------------------
c 
c writing extension stack to 'simp/33.cubes1912.adj.ext1'
c opening file to write 'simp/33.cubes1912.adj.ext1'
c closing file 'simp/33.cubes1912.adj.ext1'
c after writing 81474 bytes 0.1 MB
c wrote 3604 witnesses in 0.00 seconds process time
c 
c --- [ result ] -------------------------------------------------------------
c 
c UNKNOWN
c 
c --- [ run-time profiling ] -------------------------------------------------
c 
c process time taken by individual solving procedures
c (percentage relative to process time for solving)
c 
c       261.42   83.54% search
c       155.61   49.73% unstable
c        98.41   31.45% stable
c        51.51   16.46% simplify
c        23.56    7.53% vivify
c        19.93    6.37% parse
c        18.58    5.94% probe
c         5.98    1.91% elim
c         5.58    1.78% walk
c         1.82    0.58% lucky
c         0.90    0.29% subsume
c         0.50    0.16% ternary
c   =================================
c       312.93   93.54% solve
c 
c last line shows process time for solving
c (percentage relative to total process time)
c 
c --- [ statistics ] ---------------------------------------------------------
c 
c chronological:             35372        17.69 %  of conflicts
c conflicts:                200004       639.13    per second
c decisions:                395567      1264.06    per second
c eliminated:                 1194        19.38 %  of all variables
c fixed:                       780        12.66 %  of all variables
c learned:                  195683        97.84 %  per conflict
c learned_lits:           40295478       100.00 %  learned literals
c minimized:                     0         0.00 %  learned literals
c shrunken:               24873051        61.73 %  learned literals
c minishrunken:            2774770         6.89 %  learned literals
c propagations:           14063617         0.04 M  per second
c reduced:                  117606        58.80 %  per conflict
c rephased:                     19     10526.53    interval
c restarts:                   2261        88.46    interval
c stabilizing:                   4        57.50 %  of conflicts
c substituted:                   9         0.15 %  of all variables
c subsumed:                  71179         1.85 %  of all clauses
c strengthened:              13417         0.35 %  of all clauses
c ternary:                    5398         0.68 %  of resolved
c vivified:                     31         0.00 %  of all clauses
c walked:                        5     40000.80    interval
c weakened:                   2824         3.19    average size
c 
c seconds are measured in process time for solving
c 
c --- [ resources ] ----------------------------------------------------------
c 
c total process time since initialization:       334.54    seconds
c total real time since initialization:          335.64    seconds
c maximum resident set size of process:         1779.33    MB
c 
c --- [ shutting down ] ------------------------------------------------------
c 
c exit 0
WARNING! DIMACS header mismatch: wrong number of variables.
============================[ Problem Statistics ]=============================
|                                                                             |
|  Number of variables:          3759                                         |
|  Number of clauses:          430101                                         |
|  Parse time:                   3.23 s                                       |
|  Simplification time:          0.08 s                                       |
|                                                                             |
============================[ Search Statistics ]====================================================
| Conflicts |          ORIGINAL         |          LEARNT          | Num Sols |      SUBGRAPHS      |
|           |    Vars  Clauses Literals |    Limit  Clauses Lit/Cl |          | Canonical Noncanon. |
=====================================================================================================
|       123 |    3668   430124 47450415 |     2000      123    100 |        0 |        14        23 |
|       274 |    3668   430125 47450529 |     2000      274     86 |        0 |        25        24 |
|       500 |    3668   430126 47450642 |     2000      500     89 |        0 |        41        25 |
|       855 |    3668   430144 47451066 |     2000      855    109 |        0 |        50        43 |
|      1365 |    3668   430148 47451282 |     2000     1365    117 |        0 |        63        47 |
|      2135 |    3668   430159 47451507 |     3601     1136     70 |        0 |        75        58 |
|      3329 |    3668   430214 47452912 |     3601     2330     95 |        0 |       118       113 |
|      5213 |    3668   430390 47456696 |     5001     2414     52 |        0 |       234       289 |
|      7838 |    3668   430453 47459067 |     6312     2550     35 |        0 |       281       352 |
|     12114 |    3668   430885 47468665 |     7557     3671     34 |        0 |       379       784 |
|     17983 |    3668   430988 47471283 |     8783     5766     52 |        0 |       430       887 |
|     26834 |    3668   431190 47475154 |    11200     5234     18 |        0 |       516      1089 |
|     40430 |    3668   431812 47487692 |    13614     7044     24 |        0 |       674      1711 |
|     60375 |    3668   432296 47497595 |    16012    12787     59 |        0 |       888      2195 |
|     90050 |    3668   432779 47507449 |    19611    16661     63 |        0 |      1032      2678 |
|    134596 |    3668   433536 47522439 |    24406    18402     45 |        0 |      1199      3435 |
|    203359 |    3668   436615 47586686 |    30408    20167     38 |        0 |      1857      6514 |
|    302988 |    3668   437718 47617230 |    37617    19605     18 |        0 |      2286      7617 |
|    451123 |    3668   438064 47627962 |    46020    23543     22 |        0 |      2476      7963 |
|    673918 |    3668   439176 47662600 |    55621    45539     51 |        0 |      3157      9075 |
|   1007453 |    3668   440186 47700206 |    68821    40274     36 |        0 |      3850     10085 |
|   1507873 |    3668   441818 47758503 |    84416    46689     31 |        0 |      4518     11717 |
|   2262106 |    3668   447869 47924282 |   103623    53729     28 |        1 |      5440     17767 |
|   3393381 |    3668   456870 48173027 |   126418    98199     61 |        1 |      8072     26768 |
|   5080772 |    3668   460850 48304615 |   155215   103187     51 |        1 |     10406     30748 |
|   7615685 |    3668   470647 48593644 |   190021   144106     59 |        2 |     15296     40544 |
|  11414163 |    3668   481450 48931484 |   233225   144588     39 |        2 |     19525     51347 |
|  17121124 |    3668   506899 49618000 |   286034   153558     28 |        2 |     28849     76796 |
|  25668977 |    3668   532483 50441614 |   349643   295620     55 |        6 |     35549    102376 |
|  38579523 |    3668   659626 53628069 |   428814   382337     61 |       93 |     59330    229432 |
|  58194992 |    3668  1099990 64615565 |   527237   424429     53 |      124 |    114077    669765 |
|  87334276 |    3668  1476616 73925871 |   646032   556708     63 |      222 |    171635   1046293 |
| 130987609 |    3667  1982952 85948621 |   791131   770940     59 |      249 |    265983   1555611 |
| 195985405 |    3655  1223677 66219486 |   968813   693218     46 |      334 |    338622   1837340 |
=====================================================================================================
Number of solutions   : 380
Canonical subgraphs   : 452429         (3 /sec)
          order  3    : 1              (250000 /sec)
          order  4    : 1              (500000 /sec)
          order  5    : 1              (200000 /sec)
          order  6    : 1              (50000 /sec)
          order  7    : 1              (7634 /sec)
          order  8    : 1              (882 /sec)
          order  9    : 2              (129 /sec)
          order 10    : 6              (28 /sec)
          order 11    : 23             (7 /sec)
          order 12    : 117            (2 /sec)
          order 13    : 1066           (1 /sec)
          order 14    : 8709           (2 /sec)
          order 15    : 98203          (3 /sec)
          order 16    : 215704         (3 /sec)
          order 17    : 112650         (3 /sec)
          order 18    : 8374           (3 /sec)
          order 19    : 3349           (3 /sec)
          order 20    : 2083           (3 /sec)
          order 21    : 1757           (3 /sec)
          order 22    : 380            (0 /sec)
Noncanonical subgraphs: 3356180        (157 /sec)
          order  3    : 0              (-nan /sec)
          order  4    : 0              (-nan /sec)
          order  5    : 0              (-nan /sec)
          order  6    : 0              (-nan /sec)
          order  7    : 0              (-nan /sec)
          order  8    : 0              (-nan /sec)
          order  9    : 0              (-nan /sec)
          order 10    : 0              (-nan /sec)
          order 11    : 0              (-nan /sec)
          order 12    : 0              (-nan /sec)
          order 13    : 2216           (14226 /sec)
          order 14    : 36184          (2353 /sec)
          order 15    : 224946         (1041 /sec)
          order 16    : 2996263        (155 /sec)
          order 17    : 76361          (140 /sec)
          order 18    : 18411          (26 /sec)
          order 19    : 173            (9 /sec)
          order 20    : 3              (50 /sec)
          order 21    : 1              (6 /sec)
Canonicity checking   : 146004 s
Noncanonicity checking: 21340.2 s
Total canonicity time : 167345 s
database reductions   : 929
restarts              : 295076
conflicts             : 260917734      (755 /sec)
decisions             : 332037729      (0.00 % random) (961 /sec)
propagations          : 13750537184    (39779 /sec)
conflict literals     : 28545611639    (57.61 % deleted)
actual reward         : 0.230718
Memory used           : 1817.00 MB
CPU time              : 345672 s

UNSATISFIABLE
